\ LP format - for model browsing. Use MPS format to capture full model detail.
Minimize
  0 alpha
Subject To
 R0: x_0_1 - v_0 + 16 y_0 <= 16
 R1: x_1_0 - v_1 + 16 y_1 <= 16
 R2: y_0 + y_1 >= 1
 R3: x_0_2 - v_0 + 16 y_2 <= 16
 R4: x_2_0 - v_2 + 16 y_3 <= 16
 R5: y_2 + y_3 >= 1
 R6: x_0_3 - v_0 + 16 y_4 <= 16
 R7: x_3_0 - v_3 + 16 y_5 <= 16
 R8: y_4 + y_5 >= 1
 R9: x_0_4 - v_0 + 16 y_6 <= 16
 R10: x_4_0 - v_4 + 16 y_7 <= 16
 R11: y_6 + y_7 >= 1
 R12: x_0_5 - v_0 + 16 y_8 <= 16
 R13: x_5_0 - v_5 + 16 y_9 <= 16
 R14: y_8 + y_9 >= 1
 R15: x_0_6 - v_0 + 16 y_10 <= 16
 R16: x_6_0 - v_6 + 16 y_11 <= 16
 R17: y_10 + y_11 >= 1
 R18: x_0_7 - v_0 + 16 y_12 <= 16
 R19: x_7_0 - v_7 + 16 y_13 <= 16
 R20: y_12 + y_13 >= 1
 R21: x_1_2 - v_1 + 16 y_14 <= 16
 R22: x_2_1 - v_2 + 16 y_15 <= 16
 R23: y_14 + y_15 >= 1
 R24: x_1_3 - v_1 + 16 y_16 <= 16
 R25: x_3_1 - v_3 + 16 y_17 <= 16
 R26: y_16 + y_17 >= 1
 R27: x_1_4 - v_1 + 16 y_18 <= 16
 R28: x_4_1 - v_4 + 16 y_19 <= 16
 R29: y_18 + y_19 >= 1
 R30: x_1_5 - v_1 + 16 y_20 <= 16
 R31: x_5_1 - v_5 + 16 y_21 <= 16
 R32: y_20 + y_21 >= 1
 R33: x_1_6 - v_1 + 16 y_22 <= 16
 R34: x_6_1 - v_6 + 16 y_23 <= 16
 R35: y_22 + y_23 >= 1
 R36: x_1_7 - v_1 + 16 y_24 <= 16
 R37: x_7_1 - v_7 + 16 y_25 <= 16
 R38: y_24 + y_25 >= 1
 R39: x_2_3 - v_2 + 16 y_26 <= 16
 R40: x_3_2 - v_3 + 16 y_27 <= 16
 R41: y_26 + y_27 >= 1
 R42: x_2_4 - v_2 + 16 y_28 <= 16
 R43: x_4_2 - v_4 + 16 y_29 <= 16
 R44: y_28 + y_29 >= 1
 R45: x_2_5 - v_2 + 16 y_30 <= 16
 R46: x_5_2 - v_5 + 16 y_31 <= 16
 R47: y_30 + y_31 >= 1
 R48: x_2_6 - v_2 + 16 y_32 <= 16
 R49: x_6_2 - v_6 + 16 y_33 <= 16
 R50: y_32 + y_33 >= 1
 R51: x_2_7 - v_2 + 16 y_34 <= 16
 R52: x_7_2 - v_7 + 16 y_35 <= 16
 R53: y_34 + y_35 >= 1
 R54: x_3_4 - v_3 + 16 y_36 <= 16
 R55: x_4_3 - v_4 + 16 y_37 <= 16
 R56: y_36 + y_37 >= 1
 R57: x_3_5 - v_3 + 16 y_38 <= 16
 R58: x_5_3 - v_5 + 16 y_39 <= 16
 R59: y_38 + y_39 >= 1
 R60: x_3_6 - v_3 + 16 y_40 <= 16
 R61: x_6_3 - v_6 + 16 y_41 <= 16
 R62: y_40 + y_41 >= 1
 R63: x_3_7 - v_3 + 16 y_42 <= 16
 R64: x_7_3 - v_7 + 16 y_43 <= 16
 R65: y_42 + y_43 >= 1
 R66: x_4_5 - v_4 + 16 y_44 <= 16
 R67: x_5_4 - v_5 + 16 y_45 <= 16
 R68: y_44 + y_45 >= 1
 R69: x_4_6 - v_4 + 16 y_46 <= 16
 R70: x_6_4 - v_6 + 16 y_47 <= 16
 R71: y_46 + y_47 >= 1
 R72: x_4_7 - v_4 + 16 y_48 <= 16
 R73: x_7_4 - v_7 + 16 y_49 <= 16
 R74: y_48 + y_49 >= 1
 R75: x_5_6 - v_5 + 16 y_50 <= 16
 R76: x_6_5 - v_6 + 16 y_51 <= 16
 R77: y_50 + y_51 >= 1
 R78: x_5_7 - v_5 + 16 y_52 <= 16
 R79: x_7_5 - v_7 + 16 y_53 <= 16
 R80: y_52 + y_53 >= 1
 R81: x_6_7 - v_6 + 16 y_54 <= 16
 R82: x_7_6 - v_7 + 16 y_55 <= 16
 R83: y_54 + y_55 >= 1
 R84: x_0_1 + x_0_2 - v_0 + 16 y_56 <= 16
 R85: x_1_0 + x_1_2 - v_1 + 16 y_57 <= 16
 R86: x_2_0 + x_2_1 - v_2 + 16 y_58 <= 16
 R87: y_56 + y_57 + y_58 >= 1
 R88: x_0_1 + x_0_3 - v_0 + 16 y_59 <= 16
 R89: x_1_0 + x_1_3 - v_1 + 16 y_60 <= 16
 R90: x_3_0 + x_3_1 - v_3 + 16 y_61 <= 16
 R91: y_59 + y_60 + y_61 >= 1
 R92: x_0_1 + x_0_4 - v_0 + 16 y_62 <= 16
 R93: x_1_0 + x_1_4 - v_1 + 16 y_63 <= 16
 R94: x_4_0 + x_4_1 - v_4 + 16 y_64 <= 16
 R95: y_62 + y_63 + y_64 >= 1
 R96: x_0_1 + x_0_5 - v_0 + 16 y_65 <= 16
 R97: x_1_0 + x_1_5 - v_1 + 16 y_66 <= 16
 R98: x_5_0 + x_5_1 - v_5 + 16 y_67 <= 16
 R99: y_65 + y_66 + y_67 >= 1
 R100: x_0_1 + x_0_6 - v_0 + 16 y_68 <= 16
 R101: x_1_0 + x_1_6 - v_1 + 16 y_69 <= 16
 R102: x_6_0 + x_6_1 - v_6 + 16 y_70 <= 16
 R103: y_68 + y_69 + y_70 >= 1
 R104: x_0_1 + x_0_7 - v_0 + 16 y_71 <= 16
 R105: x_1_0 + x_1_7 - v_1 + 16 y_72 <= 16
 R106: x_7_0 + x_7_1 - v_7 + 16 y_73 <= 16
 R107: y_71 + y_72 + y_73 >= 1
 R108: x_0_2 + x_0_3 - v_0 + 16 y_74 <= 16
 R109: x_2_0 + x_2_3 - v_2 + 16 y_75 <= 16
 R110: x_3_0 + x_3_2 - v_3 + 16 y_76 <= 16
 R111: y_74 + y_75 + y_76 >= 1
 R112: x_0_2 + x_0_4 - v_0 + 16 y_77 <= 16
 R113: x_2_0 + x_2_4 - v_2 + 16 y_78 <= 16
 R114: x_4_0 + x_4_2 - v_4 + 16 y_79 <= 16
 R115: y_77 + y_78 + y_79 >= 1
 R116: x_0_2 + x_0_5 - v_0 + 16 y_80 <= 16
 R117: x_2_0 + x_2_5 - v_2 + 16 y_81 <= 16
 R118: x_5_0 + x_5_2 - v_5 + 16 y_82 <= 16
 R119: y_80 + y_81 + y_82 >= 1
 R120: x_0_2 + x_0_6 - v_0 + 16 y_83 <= 16
 R121: x_2_0 + x_2_6 - v_2 + 16 y_84 <= 16
 R122: x_6_0 + x_6_2 - v_6 + 16 y_85 <= 16
 R123: y_83 + y_84 + y_85 >= 1
 R124: x_0_2 + x_0_7 - v_0 + 16 y_86 <= 16
 R125: x_2_0 + x_2_7 - v_2 + 16 y_87 <= 16
 R126: x_7_0 + x_7_2 - v_7 + 16 y_88 <= 16
 R127: y_86 + y_87 + y_88 >= 1
 R128: x_0_3 + x_0_4 - v_0 + 16 y_89 <= 16
 R129: x_3_0 + x_3_4 - v_3 + 16 y_90 <= 16
 R130: x_4_0 + x_4_3 - v_4 + 16 y_91 <= 16
 R131: y_89 + y_90 + y_91 >= 1
 R132: x_0_3 + x_0_5 - v_0 + 16 y_92 <= 16
 R133: x_3_0 + x_3_5 - v_3 + 16 y_93 <= 16
 R134: x_5_0 + x_5_3 - v_5 + 16 y_94 <= 16
 R135: y_92 + y_93 + y_94 >= 1
 R136: x_0_3 + x_0_6 - v_0 + 16 y_95 <= 16
 R137: x_3_0 + x_3_6 - v_3 + 16 y_96 <= 16
 R138: x_6_0 + x_6_3 - v_6 + 16 y_97 <= 16
 R139: y_95 + y_96 + y_97 >= 1
 R140: x_0_3 + x_0_7 - v_0 + 16 y_98 <= 16
 R141: x_3_0 + x_3_7 - v_3 + 16 y_99 <= 16
 R142: x_7_0 + x_7_3 - v_7 + 16 y_100 <= 16
 R143: y_98 + y_99 + y_100 >= 1
 R144: x_0_4 + x_0_5 - v_0 + 16 y_101 <= 16
 R145: x_4_0 + x_4_5 - v_4 + 16 y_102 <= 16
 R146: x_5_0 + x_5_4 - v_5 + 16 y_103 <= 16
 R147: y_101 + y_102 + y_103 >= 1
 R148: x_0_4 + x_0_6 - v_0 + 16 y_104 <= 16
 R149: x_4_0 + x_4_6 - v_4 + 16 y_105 <= 16
 R150: x_6_0 + x_6_4 - v_6 + 16 y_106 <= 16
 R151: y_104 + y_105 + y_106 >= 1
 R152: x_0_4 + x_0_7 - v_0 + 16 y_107 <= 16
 R153: x_4_0 + x_4_7 - v_4 + 16 y_108 <= 16
 R154: x_7_0 + x_7_4 - v_7 + 16 y_109 <= 16
 R155: y_107 + y_108 + y_109 >= 1
 R156: x_0_5 + x_0_6 - v_0 + 16 y_110 <= 16
 R157: x_5_0 + x_5_6 - v_5 + 16 y_111 <= 16
 R158: x_6_0 + x_6_5 - v_6 + 16 y_112 <= 16
 R159: y_110 + y_111 + y_112 >= 1
 R160: x_0_5 + x_0_7 - v_0 + 16 y_113 <= 16
 R161: x_5_0 + x_5_7 - v_5 + 16 y_114 <= 16
 R162: x_7_0 + x_7_5 - v_7 + 16 y_115 <= 16
 R163: y_113 + y_114 + y_115 >= 1
 R164: x_0_6 + x_0_7 - v_0 + 16 y_116 <= 16
 R165: x_6_0 + x_6_7 - v_6 + 16 y_117 <= 16
 R166: x_7_0 + x_7_6 - v_7 + 16 y_118 <= 16
 R167: y_116 + y_117 + y_118 >= 1
 R168: x_1_2 + x_1_3 - v_1 + 16 y_119 <= 16
 R169: x_2_1 + x_2_3 - v_2 + 16 y_120 <= 16
 R170: x_3_1 + x_3_2 - v_3 + 16 y_121 <= 16
 R171: y_119 + y_120 + y_121 >= 1
 R172: x_1_2 + x_1_4 - v_1 + 16 y_122 <= 16
 R173: x_2_1 + x_2_4 - v_2 + 16 y_123 <= 16
 R174: x_4_1 + x_4_2 - v_4 + 16 y_124 <= 16
 R175: y_122 + y_123 + y_124 >= 1
 R176: x_1_2 + x_1_5 - v_1 + 16 y_125 <= 16
 R177: x_2_1 + x_2_5 - v_2 + 16 y_126 <= 16
 R178: x_5_1 + x_5_2 - v_5 + 16 y_127 <= 16
 R179: y_125 + y_126 + y_127 >= 1
 R180: x_1_2 + x_1_6 - v_1 + 16 y_128 <= 16
 R181: x_2_1 + x_2_6 - v_2 + 16 y_129 <= 16
 R182: x_6_1 + x_6_2 - v_6 + 16 y_130 <= 16
 R183: y_128 + y_129 + y_130 >= 1
 R184: x_1_2 + x_1_7 - v_1 + 16 y_131 <= 16
 R185: x_2_1 + x_2_7 - v_2 + 16 y_132 <= 16
 R186: x_7_1 + x_7_2 - v_7 + 16 y_133 <= 16
 R187: y_131 + y_132 + y_133 >= 1
 R188: x_1_3 + x_1_4 - v_1 + 16 y_134 <= 16
 R189: x_3_1 + x_3_4 - v_3 + 16 y_135 <= 16
 R190: x_4_1 + x_4_3 - v_4 + 16 y_136 <= 16
 R191: y_134 + y_135 + y_136 >= 1
 R192: x_1_3 + x_1_5 - v_1 + 16 y_137 <= 16
 R193: x_3_1 + x_3_5 - v_3 + 16 y_138 <= 16
 R194: x_5_1 + x_5_3 - v_5 + 16 y_139 <= 16
 R195: y_137 + y_138 + y_139 >= 1
 R196: x_1_3 + x_1_6 - v_1 + 16 y_140 <= 16
 R197: x_3_1 + x_3_6 - v_3 + 16 y_141 <= 16
 R198: x_6_1 + x_6_3 - v_6 + 16 y_142 <= 16
 R199: y_140 + y_141 + y_142 >= 1
 R200: x_1_3 + x_1_7 - v_1 + 16 y_143 <= 16
 R201: x_3_1 + x_3_7 - v_3 + 16 y_144 <= 16
 R202: x_7_1 + x_7_3 - v_7 + 16 y_145 <= 16
 R203: y_143 + y_144 + y_145 >= 1
 R204: x_1_4 + x_1_5 - v_1 + 16 y_146 <= 16
 R205: x_4_1 + x_4_5 - v_4 + 16 y_147 <= 16
 R206: x_5_1 + x_5_4 - v_5 + 16 y_148 <= 16
 R207: y_146 + y_147 + y_148 >= 1
 R208: x_1_4 + x_1_6 - v_1 + 16 y_149 <= 16
 R209: x_4_1 + x_4_6 - v_4 + 16 y_150 <= 16
 R210: x_6_1 + x_6_4 - v_6 + 16 y_151 <= 16
 R211: y_149 + y_150 + y_151 >= 1
 R212: x_1_4 + x_1_7 - v_1 + 16 y_152 <= 16
 R213: x_4_1 + x_4_7 - v_4 + 16 y_153 <= 16
 R214: x_7_1 + x_7_4 - v_7 + 16 y_154 <= 16
 R215: y_152 + y_153 + y_154 >= 1
 R216: x_1_5 + x_1_6 - v_1 + 16 y_155 <= 16
 R217: x_5_1 + x_5_6 - v_5 + 16 y_156 <= 16
 R218: x_6_1 + x_6_5 - v_6 + 16 y_157 <= 16
 R219: y_155 + y_156 + y_157 >= 1
 R220: x_1_5 + x_1_7 - v_1 + 16 y_158 <= 16
 R221: x_5_1 + x_5_7 - v_5 + 16 y_159 <= 16
 R222: x_7_1 + x_7_5 - v_7 + 16 y_160 <= 16
 R223: y_158 + y_159 + y_160 >= 1
 R224: x_1_6 + x_1_7 - v_1 + 16 y_161 <= 16
 R225: x_6_1 + x_6_7 - v_6 + 16 y_162 <= 16
 R226: x_7_1 + x_7_6 - v_7 + 16 y_163 <= 16
 R227: y_161 + y_162 + y_163 >= 1
 R228: x_2_3 + x_2_4 - v_2 + 16 y_164 <= 16
 R229: x_3_2 + x_3_4 - v_3 + 16 y_165 <= 16
 R230: x_4_2 + x_4_3 - v_4 + 16 y_166 <= 16
 R231: y_164 + y_165 + y_166 >= 1
 R232: x_2_3 + x_2_5 - v_2 + 16 y_167 <= 16
 R233: x_3_2 + x_3_5 - v_3 + 16 y_168 <= 16
 R234: x_5_2 + x_5_3 - v_5 + 16 y_169 <= 16
 R235: y_167 + y_168 + y_169 >= 1
 R236: x_2_3 + x_2_6 - v_2 + 16 y_170 <= 16
 R237: x_3_2 + x_3_6 - v_3 + 16 y_171 <= 16
 R238: x_6_2 + x_6_3 - v_6 + 16 y_172 <= 16
 R239: y_170 + y_171 + y_172 >= 1
 R240: x_2_3 + x_2_7 - v_2 + 16 y_173 <= 16
 R241: x_3_2 + x_3_7 - v_3 + 16 y_174 <= 16
 R242: x_7_2 + x_7_3 - v_7 + 16 y_175 <= 16
 R243: y_173 + y_174 + y_175 >= 1
 R244: x_2_4 + x_2_5 - v_2 + 16 y_176 <= 16
 R245: x_4_2 + x_4_5 - v_4 + 16 y_177 <= 16
 R246: x_5_2 + x_5_4 - v_5 + 16 y_178 <= 16
 R247: y_176 + y_177 + y_178 >= 1
 R248: x_2_4 + x_2_6 - v_2 + 16 y_179 <= 16
 R249: x_4_2 + x_4_6 - v_4 + 16 y_180 <= 16
 R250: x_6_2 + x_6_4 - v_6 + 16 y_181 <= 16
 R251: y_179 + y_180 + y_181 >= 1
 R252: x_2_4 + x_2_7 - v_2 + 16 y_182 <= 16
 R253: x_4_2 + x_4_7 - v_4 + 16 y_183 <= 16
 R254: x_7_2 + x_7_4 - v_7 + 16 y_184 <= 16
 R255: y_182 + y_183 + y_184 >= 1
 R256: x_2_5 + x_2_6 - v_2 + 16 y_185 <= 16
 R257: x_5_2 + x_5_6 - v_5 + 16 y_186 <= 16
 R258: x_6_2 + x_6_5 - v_6 + 16 y_187 <= 16
 R259: y_185 + y_186 + y_187 >= 1
 R260: x_2_5 + x_2_7 - v_2 + 16 y_188 <= 16
 R261: x_5_2 + x_5_7 - v_5 + 16 y_189 <= 16
 R262: x_7_2 + x_7_5 - v_7 + 16 y_190 <= 16
 R263: y_188 + y_189 + y_190 >= 1
 R264: x_2_6 + x_2_7 - v_2 + 16 y_191 <= 16
 R265: x_6_2 + x_6_7 - v_6 + 16 y_192 <= 16
 R266: x_7_2 + x_7_6 - v_7 + 16 y_193 <= 16
 R267: y_191 + y_192 + y_193 >= 1
 R268: x_3_4 + x_3_5 - v_3 + 16 y_194 <= 16
 R269: x_4_3 + x_4_5 - v_4 + 16 y_195 <= 16
 R270: x_5_3 + x_5_4 - v_5 + 16 y_196 <= 16
 R271: y_194 + y_195 + y_196 >= 1
 R272: x_3_4 + x_3_6 - v_3 + 16 y_197 <= 16
 R273: x_4_3 + x_4_6 - v_4 + 16 y_198 <= 16
 R274: x_6_3 + x_6_4 - v_6 + 16 y_199 <= 16
 R275: y_197 + y_198 + y_199 >= 1
 R276: x_3_4 + x_3_7 - v_3 + 16 y_200 <= 16
 R277: x_4_3 + x_4_7 - v_4 + 16 y_201 <= 16
 R278: x_7_3 + x_7_4 - v_7 + 16 y_202 <= 16
 R279: y_200 + y_201 + y_202 >= 1
 R280: x_3_5 + x_3_6 - v_3 + 16 y_203 <= 16
 R281: x_5_3 + x_5_6 - v_5 + 16 y_204 <= 16
 R282: x_6_3 + x_6_5 - v_6 + 16 y_205 <= 16
 R283: y_203 + y_204 + y_205 >= 1
 R284: x_3_5 + x_3_7 - v_3 + 16 y_206 <= 16
 R285: x_5_3 + x_5_7 - v_5 + 16 y_207 <= 16
 R286: x_7_3 + x_7_5 - v_7 + 16 y_208 <= 16
 R287: y_206 + y_207 + y_208 >= 1
 R288: x_3_6 + x_3_7 - v_3 + 16 y_209 <= 16
 R289: x_6_3 + x_6_7 - v_6 + 16 y_210 <= 16
 R290: x_7_3 + x_7_6 - v_7 + 16 y_211 <= 16
 R291: y_209 + y_210 + y_211 >= 1
 R292: x_4_5 + x_4_6 - v_4 + 16 y_212 <= 16
 R293: x_5_4 + x_5_6 - v_5 + 16 y_213 <= 16
 R294: x_6_4 + x_6_5 - v_6 + 16 y_214 <= 16
 R295: y_212 + y_213 + y_214 >= 1
 R296: x_4_5 + x_4_7 - v_4 + 16 y_215 <= 16
 R297: x_5_4 + x_5_7 - v_5 + 16 y_216 <= 16
 R298: x_7_4 + x_7_5 - v_7 + 16 y_217 <= 16
 R299: y_215 + y_216 + y_217 >= 1
 R300: x_4_6 + x_4_7 - v_4 + 16 y_218 <= 16
 R301: x_6_4 + x_6_7 - v_6 + 16 y_219 <= 16
 R302: x_7_4 + x_7_6 - v_7 + 16 y_220 <= 16
 R303: y_218 + y_219 + y_220 >= 1
 R304: x_5_6 + x_5_7 - v_5 + 16 y_221 <= 16
 R305: x_6_5 + x_6_7 - v_6 + 16 y_222 <= 16
 R306: x_7_5 + x_7_6 - v_7 + 16 y_223 <= 16
 R307: y_221 + y_222 + y_223 >= 1
 R308: x_0_1 + x_0_2 + x_0_3 - v_0 + 16 y_224 <= 16
 R309: x_1_0 + x_1_2 + x_1_3 - v_1 + 16 y_225 <= 16
 R310: x_2_0 + x_2_1 + x_2_3 - v_2 + 16 y_226 <= 16
 R311: x_3_0 + x_3_1 + x_3_2 - v_3 + 16 y_227 <= 16
 R312: y_224 + y_225 + y_226 + y_227 >= 1
 R313: x_0_1 + x_0_2 + x_0_4 - v_0 + 16 y_228 <= 16
 R314: x_1_0 + x_1_2 + x_1_4 - v_1 + 16 y_229 <= 16
 R315: x_2_0 + x_2_1 + x_2_4 - v_2 + 16 y_230 <= 16
 R316: x_4_0 + x_4_1 + x_4_2 - v_4 + 16 y_231 <= 16
 R317: y_228 + y_229 + y_230 + y_231 >= 1
 R318: x_0_1 + x_0_2 + x_0_5 - v_0 + 16 y_232 <= 16
 R319: x_1_0 + x_1_2 + x_1_5 - v_1 + 16 y_233 <= 16
 R320: x_2_0 + x_2_1 + x_2_5 - v_2 + 16 y_234 <= 16
 R321: x_5_0 + x_5_1 + x_5_2 - v_5 + 16 y_235 <= 16
 R322: y_232 + y_233 + y_234 + y_235 >= 1
 R323: x_0_1 + x_0_2 + x_0_6 - v_0 + 16 y_236 <= 16
 R324: x_1_0 + x_1_2 + x_1_6 - v_1 + 16 y_237 <= 16
 R325: x_2_0 + x_2_1 + x_2_6 - v_2 + 16 y_238 <= 16
 R326: x_6_0 + x_6_1 + x_6_2 - v_6 + 16 y_239 <= 16
 R327: y_236 + y_237 + y_238 + y_239 >= 1
 R328: x_0_1 + x_0_2 + x_0_7 - v_0 + 16 y_240 <= 16
 R329: x_1_0 + x_1_2 + x_1_7 - v_1 + 16 y_241 <= 16
 R330: x_2_0 + x_2_1 + x_2_7 - v_2 + 16 y_242 <= 16
 R331: x_7_0 + x_7_1 + x_7_2 - v_7 + 16 y_243 <= 16
 R332: y_240 + y_241 + y_242 + y_243 >= 1
 R333: x_0_1 + x_0_3 + x_0_4 - v_0 + 16 y_244 <= 16
 R334: x_1_0 + x_1_3 + x_1_4 - v_1 + 16 y_245 <= 16
 R335: x_3_0 + x_3_1 + x_3_4 - v_3 + 16 y_246 <= 16
 R336: x_4_0 + x_4_1 + x_4_3 - v_4 + 16 y_247 <= 16
 R337: y_244 + y_245 + y_246 + y_247 >= 1
 R338: x_0_1 + x_0_3 + x_0_5 - v_0 + 16 y_248 <= 16
 R339: x_1_0 + x_1_3 + x_1_5 - v_1 + 16 y_249 <= 16
 R340: x_3_0 + x_3_1 + x_3_5 - v_3 + 16 y_250 <= 16
 R341: x_5_0 + x_5_1 + x_5_3 - v_5 + 16 y_251 <= 16
 R342: y_248 + y_249 + y_250 + y_251 >= 1
 R343: x_0_1 + x_0_3 + x_0_6 - v_0 + 16 y_252 <= 16
 R344: x_1_0 + x_1_3 + x_1_6 - v_1 + 16 y_253 <= 16
 R345: x_3_0 + x_3_1 + x_3_6 - v_3 + 16 y_254 <= 16
 R346: x_6_0 + x_6_1 + x_6_3 - v_6 + 16 y_255 <= 16
 R347: y_252 + y_253 + y_254 + y_255 >= 1
 R348: x_0_1 + x_0_3 + x_0_7 - v_0 + 16 y_256 <= 16
 R349: x_1_0 + x_1_3 + x_1_7 - v_1 + 16 y_257 <= 16
 R350: x_3_0 + x_3_1 + x_3_7 - v_3 + 16 y_258 <= 16
 R351: x_7_0 + x_7_1 + x_7_3 - v_7 + 16 y_259 <= 16
 R352: y_256 + y_257 + y_258 + y_259 >= 1
 R353: x_0_1 + x_0_4 + x_0_5 - v_0 + 16 y_260 <= 16
 R354: x_1_0 + x_1_4 + x_1_5 - v_1 + 16 y_261 <= 16
 R355: x_4_0 + x_4_1 + x_4_5 - v_4 + 16 y_262 <= 16
 R356: x_5_0 + x_5_1 + x_5_4 - v_5 + 16 y_263 <= 16
 R357: y_260 + y_261 + y_262 + y_263 >= 1
 R358: x_0_1 + x_0_4 + x_0_6 - v_0 + 16 y_264 <= 16
 R359: x_1_0 + x_1_4 + x_1_6 - v_1 + 16 y_265 <= 16
 R360: x_4_0 + x_4_1 + x_4_6 - v_4 + 16 y_266 <= 16
 R361: x_6_0 + x_6_1 + x_6_4 - v_6 + 16 y_267 <= 16
 R362: y_264 + y_265 + y_266 + y_267 >= 1
 R363: x_0_1 + x_0_4 + x_0_7 - v_0 + 16 y_268 <= 16
 R364: x_1_0 + x_1_4 + x_1_7 - v_1 + 16 y_269 <= 16
 R365: x_4_0 + x_4_1 + x_4_7 - v_4 + 16 y_270 <= 16
 R366: x_7_0 + x_7_1 + x_7_4 - v_7 + 16 y_271 <= 16
 R367: y_268 + y_269 + y_270 + y_271 >= 1
 R368: x_0_1 + x_0_5 + x_0_6 - v_0 + 16 y_272 <= 16
 R369: x_1_0 + x_1_5 + x_1_6 - v_1 + 16 y_273 <= 16
 R370: x_5_0 + x_5_1 + x_5_6 - v_5 + 16 y_274 <= 16
 R371: x_6_0 + x_6_1 + x_6_5 - v_6 + 16 y_275 <= 16
 R372: y_272 + y_273 + y_274 + y_275 >= 1
 R373: x_0_1 + x_0_5 + x_0_7 - v_0 + 16 y_276 <= 16
 R374: x_1_0 + x_1_5 + x_1_7 - v_1 + 16 y_277 <= 16
 R375: x_5_0 + x_5_1 + x_5_7 - v_5 + 16 y_278 <= 16
 R376: x_7_0 + x_7_1 + x_7_5 - v_7 + 16 y_279 <= 16
 R377: y_276 + y_277 + y_278 + y_279 >= 1
 R378: x_0_1 + x_0_6 + x_0_7 - v_0 + 16 y_280 <= 16
 R379: x_1_0 + x_1_6 + x_1_7 - v_1 + 16 y_281 <= 16
 R380: x_6_0 + x_6_1 + x_6_7 - v_6 + 16 y_282 <= 16
 R381: x_7_0 + x_7_1 + x_7_6 - v_7 + 16 y_283 <= 16
 R382: y_280 + y_281 + y_282 + y_283 >= 1
 R383: x_0_2 + x_0_3 + x_0_4 - v_0 + 16 y_284 <= 16
 R384: x_2_0 + x_2_3 + x_2_4 - v_2 + 16 y_285 <= 16
 R385: x_3_0 + x_3_2 + x_3_4 - v_3 + 16 y_286 <= 16
 R386: x_4_0 + x_4_2 + x_4_3 - v_4 + 16 y_287 <= 16
 R387: y_284 + y_285 + y_286 + y_287 >= 1
 R388: x_0_2 + x_0_3 + x_0_5 - v_0 + 16 y_288 <= 16
 R389: x_2_0 + x_2_3 + x_2_5 - v_2 + 16 y_289 <= 16
 R390: x_3_0 + x_3_2 + x_3_5 - v_3 + 16 y_290 <= 16
 R391: x_5_0 + x_5_2 + x_5_3 - v_5 + 16 y_291 <= 16
 R392: y_288 + y_289 + y_290 + y_291 >= 1
 R393: x_0_2 + x_0_3 + x_0_6 - v_0 + 16 y_292 <= 16
 R394: x_2_0 + x_2_3 + x_2_6 - v_2 + 16 y_293 <= 16
 R395: x_3_0 + x_3_2 + x_3_6 - v_3 + 16 y_294 <= 16
 R396: x_6_0 + x_6_2 + x_6_3 - v_6 + 16 y_295 <= 16
 R397: y_292 + y_293 + y_294 + y_295 >= 1
 R398: x_0_2 + x_0_3 + x_0_7 - v_0 + 16 y_296 <= 16
 R399: x_2_0 + x_2_3 + x_2_7 - v_2 + 16 y_297 <= 16
 R400: x_3_0 + x_3_2 + x_3_7 - v_3 + 16 y_298 <= 16
 R401: x_7_0 + x_7_2 + x_7_3 - v_7 + 16 y_299 <= 16
 R402: y_296 + y_297 + y_298 + y_299 >= 1
 R403: x_0_2 + x_0_4 + x_0_5 - v_0 + 16 y_300 <= 16
 R404: x_2_0 + x_2_4 + x_2_5 - v_2 + 16 y_301 <= 16
 R405: x_4_0 + x_4_2 + x_4_5 - v_4 + 16 y_302 <= 16
 R406: x_5_0 + x_5_2 + x_5_4 - v_5 + 16 y_303 <= 16
 R407: y_300 + y_301 + y_302 + y_303 >= 1
 R408: x_0_2 + x_0_4 + x_0_6 - v_0 + 16 y_304 <= 16
 R409: x_2_0 + x_2_4 + x_2_6 - v_2 + 16 y_305 <= 16
 R410: x_4_0 + x_4_2 + x_4_6 - v_4 + 16 y_306 <= 16
 R411: x_6_0 + x_6_2 + x_6_4 - v_6 + 16 y_307 <= 16
 R412: y_304 + y_305 + y_306 + y_307 >= 1
 R413: x_0_2 + x_0_4 + x_0_7 - v_0 + 16 y_308 <= 16
 R414: x_2_0 + x_2_4 + x_2_7 - v_2 + 16 y_309 <= 16
 R415: x_4_0 + x_4_2 + x_4_7 - v_4 + 16 y_310 <= 16
 R416: x_7_0 + x_7_2 + x_7_4 - v_7 + 16 y_311 <= 16
 R417: y_308 + y_309 + y_310 + y_311 >= 1
 R418: x_0_2 + x_0_5 + x_0_6 - v_0 + 16 y_312 <= 16
 R419: x_2_0 + x_2_5 + x_2_6 - v_2 + 16 y_313 <= 16
 R420: x_5_0 + x_5_2 + x_5_6 - v_5 + 16 y_314 <= 16
 R421: x_6_0 + x_6_2 + x_6_5 - v_6 + 16 y_315 <= 16
 R422: y_312 + y_313 + y_314 + y_315 >= 1
 R423: x_0_2 + x_0_5 + x_0_7 - v_0 + 16 y_316 <= 16
 R424: x_2_0 + x_2_5 + x_2_7 - v_2 + 16 y_317 <= 16
 R425: x_5_0 + x_5_2 + x_5_7 - v_5 + 16 y_318 <= 16
 R426: x_7_0 + x_7_2 + x_7_5 - v_7 + 16 y_319 <= 16
 R427: y_316 + y_317 + y_318 + y_319 >= 1
 R428: x_0_2 + x_0_6 + x_0_7 - v_0 + 16 y_320 <= 16
 R429: x_2_0 + x_2_6 + x_2_7 - v_2 + 16 y_321 <= 16
 R430: x_6_0 + x_6_2 + x_6_7 - v_6 + 16 y_322 <= 16
 R431: x_7_0 + x_7_2 + x_7_6 - v_7 + 16 y_323 <= 16
 R432: y_320 + y_321 + y_322 + y_323 >= 1
 R433: x_0_3 + x_0_4 + x_0_5 - v_0 + 16 y_324 <= 16
 R434: x_3_0 + x_3_4 + x_3_5 - v_3 + 16 y_325 <= 16
 R435: x_4_0 + x_4_3 + x_4_5 - v_4 + 16 y_326 <= 16
 R436: x_5_0 + x_5_3 + x_5_4 - v_5 + 16 y_327 <= 16
 R437: y_324 + y_325 + y_326 + y_327 >= 1
 R438: x_0_3 + x_0_4 + x_0_6 - v_0 + 16 y_328 <= 16
 R439: x_3_0 + x_3_4 + x_3_6 - v_3 + 16 y_329 <= 16
 R440: x_4_0 + x_4_3 + x_4_6 - v_4 + 16 y_330 <= 16
 R441: x_6_0 + x_6_3 + x_6_4 - v_6 + 16 y_331 <= 16
 R442: y_328 + y_329 + y_330 + y_331 >= 1
 R443: x_0_3 + x_0_4 + x_0_7 - v_0 + 16 y_332 <= 16
 R444: x_3_0 + x_3_4 + x_3_7 - v_3 + 16 y_333 <= 16
 R445: x_4_0 + x_4_3 + x_4_7 - v_4 + 16 y_334 <= 16
 R446: x_7_0 + x_7_3 + x_7_4 - v_7 + 16 y_335 <= 16
 R447: y_332 + y_333 + y_334 + y_335 >= 1
 R448: x_0_3 + x_0_5 + x_0_6 - v_0 + 16 y_336 <= 16
 R449: x_3_0 + x_3_5 + x_3_6 - v_3 + 16 y_337 <= 16
 R450: x_5_0 + x_5_3 + x_5_6 - v_5 + 16 y_338 <= 16
 R451: x_6_0 + x_6_3 + x_6_5 - v_6 + 16 y_339 <= 16
 R452: y_336 + y_337 + y_338 + y_339 >= 1
 R453: x_0_3 + x_0_5 + x_0_7 - v_0 + 16 y_340 <= 16
 R454: x_3_0 + x_3_5 + x_3_7 - v_3 + 16 y_341 <= 16
 R455: x_5_0 + x_5_3 + x_5_7 - v_5 + 16 y_342 <= 16
 R456: x_7_0 + x_7_3 + x_7_5 - v_7 + 16 y_343 <= 16
 R457: y_340 + y_341 + y_342 + y_343 >= 1
 R458: x_0_3 + x_0_6 + x_0_7 - v_0 + 16 y_344 <= 16
 R459: x_3_0 + x_3_6 + x_3_7 - v_3 + 16 y_345 <= 16
 R460: x_6_0 + x_6_3 + x_6_7 - v_6 + 16 y_346 <= 16
 R461: x_7_0 + x_7_3 + x_7_6 - v_7 + 16 y_347 <= 16
 R462: y_344 + y_345 + y_346 + y_347 >= 1
 R463: x_0_4 + x_0_5 + x_0_6 - v_0 + 16 y_348 <= 16
 R464: x_4_0 + x_4_5 + x_4_6 - v_4 + 16 y_349 <= 16
 R465: x_5_0 + x_5_4 + x_5_6 - v_5 + 16 y_350 <= 16
 R466: x_6_0 + x_6_4 + x_6_5 - v_6 + 16 y_351 <= 16
 R467: y_348 + y_349 + y_350 + y_351 >= 1
 R468: x_0_4 + x_0_5 + x_0_7 - v_0 + 16 y_352 <= 16
 R469: x_4_0 + x_4_5 + x_4_7 - v_4 + 16 y_353 <= 16
 R470: x_5_0 + x_5_4 + x_5_7 - v_5 + 16 y_354 <= 16
 R471: x_7_0 + x_7_4 + x_7_5 - v_7 + 16 y_355 <= 16
 R472: y_352 + y_353 + y_354 + y_355 >= 1
 R473: x_0_4 + x_0_6 + x_0_7 - v_0 + 16 y_356 <= 16
 R474: x_4_0 + x_4_6 + x_4_7 - v_4 + 16 y_357 <= 16
 R475: x_6_0 + x_6_4 + x_6_7 - v_6 + 16 y_358 <= 16
 R476: x_7_0 + x_7_4 + x_7_6 - v_7 + 16 y_359 <= 16
 R477: y_356 + y_357 + y_358 + y_359 >= 1
 R478: x_0_5 + x_0_6 + x_0_7 - v_0 + 16 y_360 <= 16
 R479: x_5_0 + x_5_6 + x_5_7 - v_5 + 16 y_361 <= 16
 R480: x_6_0 + x_6_5 + x_6_7 - v_6 + 16 y_362 <= 16
 R481: x_7_0 + x_7_5 + x_7_6 - v_7 + 16 y_363 <= 16
 R482: y_360 + y_361 + y_362 + y_363 >= 1
 R483: x_1_2 + x_1_3 + x_1_4 - v_1 + 16 y_364 <= 16
 R484: x_2_1 + x_2_3 + x_2_4 - v_2 + 16 y_365 <= 16
 R485: x_3_1 + x_3_2 + x_3_4 - v_3 + 16 y_366 <= 16
 R486: x_4_1 + x_4_2 + x_4_3 - v_4 + 16 y_367 <= 16
 R487: y_364 + y_365 + y_366 + y_367 >= 1
 R488: x_1_2 + x_1_3 + x_1_5 - v_1 + 16 y_368 <= 16
 R489: x_2_1 + x_2_3 + x_2_5 - v_2 + 16 y_369 <= 16
 R490: x_3_1 + x_3_2 + x_3_5 - v_3 + 16 y_370 <= 16
 R491: x_5_1 + x_5_2 + x_5_3 - v_5 + 16 y_371 <= 16
 R492: y_368 + y_369 + y_370 + y_371 >= 1
 R493: x_1_2 + x_1_3 + x_1_6 - v_1 + 16 y_372 <= 16
 R494: x_2_1 + x_2_3 + x_2_6 - v_2 + 16 y_373 <= 16
 R495: x_3_1 + x_3_2 + x_3_6 - v_3 + 16 y_374 <= 16
 R496: x_6_1 + x_6_2 + x_6_3 - v_6 + 16 y_375 <= 16
 R497: y_372 + y_373 + y_374 + y_375 >= 1
 R498: x_1_2 + x_1_3 + x_1_7 - v_1 + 16 y_376 <= 16
 R499: x_2_1 + x_2_3 + x_2_7 - v_2 + 16 y_377 <= 16
 R500: x_3_1 + x_3_2 + x_3_7 - v_3 + 16 y_378 <= 16
 R501: x_7_1 + x_7_2 + x_7_3 - v_7 + 16 y_379 <= 16
 R502: y_376 + y_377 + y_378 + y_379 >= 1
 R503: x_1_2 + x_1_4 + x_1_5 - v_1 + 16 y_380 <= 16
 R504: x_2_1 + x_2_4 + x_2_5 - v_2 + 16 y_381 <= 16
 R505: x_4_1 + x_4_2 + x_4_5 - v_4 + 16 y_382 <= 16
 R506: x_5_1 + x_5_2 + x_5_4 - v_5 + 16 y_383 <= 16
 R507: y_380 + y_381 + y_382 + y_383 >= 1
 R508: x_1_2 + x_1_4 + x_1_6 - v_1 + 16 y_384 <= 16
 R509: x_2_1 + x_2_4 + x_2_6 - v_2 + 16 y_385 <= 16
 R510: x_4_1 + x_4_2 + x_4_6 - v_4 + 16 y_386 <= 16
 R511: x_6_1 + x_6_2 + x_6_4 - v_6 + 16 y_387 <= 16
 R512: y_384 + y_385 + y_386 + y_387 >= 1
 R513: x_1_2 + x_1_4 + x_1_7 - v_1 + 16 y_388 <= 16
 R514: x_2_1 + x_2_4 + x_2_7 - v_2 + 16 y_389 <= 16
 R515: x_4_1 + x_4_2 + x_4_7 - v_4 + 16 y_390 <= 16
 R516: x_7_1 + x_7_2 + x_7_4 - v_7 + 16 y_391 <= 16
 R517: y_388 + y_389 + y_390 + y_391 >= 1
 R518: x_1_2 + x_1_5 + x_1_6 - v_1 + 16 y_392 <= 16
 R519: x_2_1 + x_2_5 + x_2_6 - v_2 + 16 y_393 <= 16
 R520: x_5_1 + x_5_2 + x_5_6 - v_5 + 16 y_394 <= 16
 R521: x_6_1 + x_6_2 + x_6_5 - v_6 + 16 y_395 <= 16
 R522: y_392 + y_393 + y_394 + y_395 >= 1
 R523: x_1_2 + x_1_5 + x_1_7 - v_1 + 16 y_396 <= 16
 R524: x_2_1 + x_2_5 + x_2_7 - v_2 + 16 y_397 <= 16
 R525: x_5_1 + x_5_2 + x_5_7 - v_5 + 16 y_398 <= 16
 R526: x_7_1 + x_7_2 + x_7_5 - v_7 + 16 y_399 <= 16
 R527: y_396 + y_397 + y_398 + y_399 >= 1
 R528: x_1_2 + x_1_6 + x_1_7 - v_1 + 16 y_400 <= 16
 R529: x_2_1 + x_2_6 + x_2_7 - v_2 + 16 y_401 <= 16
 R530: x_6_1 + x_6_2 + x_6_7 - v_6 + 16 y_402 <= 16
 R531: x_7_1 + x_7_2 + x_7_6 - v_7 + 16 y_403 <= 16
 R532: y_400 + y_401 + y_402 + y_403 >= 1
 R533: x_1_3 + x_1_4 + x_1_5 - v_1 + 16 y_404 <= 16
 R534: x_3_1 + x_3_4 + x_3_5 - v_3 + 16 y_405 <= 16
 R535: x_4_1 + x_4_3 + x_4_5 - v_4 + 16 y_406 <= 16
 R536: x_5_1 + x_5_3 + x_5_4 - v_5 + 16 y_407 <= 16
 R537: y_404 + y_405 + y_406 + y_407 >= 1
 R538: x_1_3 + x_1_4 + x_1_6 - v_1 + 16 y_408 <= 16
 R539: x_3_1 + x_3_4 + x_3_6 - v_3 + 16 y_409 <= 16
 R540: x_4_1 + x_4_3 + x_4_6 - v_4 + 16 y_410 <= 16
 R541: x_6_1 + x_6_3 + x_6_4 - v_6 + 16 y_411 <= 16
 R542: y_408 + y_409 + y_410 + y_411 >= 1
 R543: x_1_3 + x_1_4 + x_1_7 - v_1 + 16 y_412 <= 16
 R544: x_3_1 + x_3_4 + x_3_7 - v_3 + 16 y_413 <= 16
 R545: x_4_1 + x_4_3 + x_4_7 - v_4 + 16 y_414 <= 16
 R546: x_7_1 + x_7_3 + x_7_4 - v_7 + 16 y_415 <= 16
 R547: y_412 + y_413 + y_414 + y_415 >= 1
 R548: x_1_3 + x_1_5 + x_1_6 - v_1 + 16 y_416 <= 16
 R549: x_3_1 + x_3_5 + x_3_6 - v_3 + 16 y_417 <= 16
 R550: x_5_1 + x_5_3 + x_5_6 - v_5 + 16 y_418 <= 16
 R551: x_6_1 + x_6_3 + x_6_5 - v_6 + 16 y_419 <= 16
 R552: y_416 + y_417 + y_418 + y_419 >= 1
 R553: x_1_3 + x_1_5 + x_1_7 - v_1 + 16 y_420 <= 16
 R554: x_3_1 + x_3_5 + x_3_7 - v_3 + 16 y_421 <= 16
 R555: x_5_1 + x_5_3 + x_5_7 - v_5 + 16 y_422 <= 16
 R556: x_7_1 + x_7_3 + x_7_5 - v_7 + 16 y_423 <= 16
 R557: y_420 + y_421 + y_422 + y_423 >= 1
 R558: x_1_3 + x_1_6 + x_1_7 - v_1 + 16 y_424 <= 16
 R559: x_3_1 + x_3_6 + x_3_7 - v_3 + 16 y_425 <= 16
 R560: x_6_1 + x_6_3 + x_6_7 - v_6 + 16 y_426 <= 16
 R561: x_7_1 + x_7_3 + x_7_6 - v_7 + 16 y_427 <= 16
 R562: y_424 + y_425 + y_426 + y_427 >= 1
 R563: x_1_4 + x_1_5 + x_1_6 - v_1 + 16 y_428 <= 16
 R564: x_4_1 + x_4_5 + x_4_6 - v_4 + 16 y_429 <= 16
 R565: x_5_1 + x_5_4 + x_5_6 - v_5 + 16 y_430 <= 16
 R566: x_6_1 + x_6_4 + x_6_5 - v_6 + 16 y_431 <= 16
 R567: y_428 + y_429 + y_430 + y_431 >= 1
 R568: x_1_4 + x_1_5 + x_1_7 - v_1 + 16 y_432 <= 16
 R569: x_4_1 + x_4_5 + x_4_7 - v_4 + 16 y_433 <= 16
 R570: x_5_1 + x_5_4 + x_5_7 - v_5 + 16 y_434 <= 16
 R571: x_7_1 + x_7_4 + x_7_5 - v_7 + 16 y_435 <= 16
 R572: y_432 + y_433 + y_434 + y_435 >= 1
 R573: x_1_4 + x_1_6 + x_1_7 - v_1 + 16 y_436 <= 16
 R574: x_4_1 + x_4_6 + x_4_7 - v_4 + 16 y_437 <= 16
 R575: x_6_1 + x_6_4 + x_6_7 - v_6 + 16 y_438 <= 16
 R576: x_7_1 + x_7_4 + x_7_6 - v_7 + 16 y_439 <= 16
 R577: y_436 + y_437 + y_438 + y_439 >= 1
 R578: x_1_5 + x_1_6 + x_1_7 - v_1 + 16 y_440 <= 16
 R579: x_5_1 + x_5_6 + x_5_7 - v_5 + 16 y_441 <= 16
 R580: x_6_1 + x_6_5 + x_6_7 - v_6 + 16 y_442 <= 16
 R581: x_7_1 + x_7_5 + x_7_6 - v_7 + 16 y_443 <= 16
 R582: y_440 + y_441 + y_442 + y_443 >= 1
 R583: x_2_3 + x_2_4 + x_2_5 - v_2 + 16 y_444 <= 16
 R584: x_3_2 + x_3_4 + x_3_5 - v_3 + 16 y_445 <= 16
 R585: x_4_2 + x_4_3 + x_4_5 - v_4 + 16 y_446 <= 16
 R586: x_5_2 + x_5_3 + x_5_4 - v_5 + 16 y_447 <= 16
 R587: y_444 + y_445 + y_446 + y_447 >= 1
 R588: x_2_3 + x_2_4 + x_2_6 - v_2 + 16 y_448 <= 16
 R589: x_3_2 + x_3_4 + x_3_6 - v_3 + 16 y_449 <= 16
 R590: x_4_2 + x_4_3 + x_4_6 - v_4 + 16 y_450 <= 16
 R591: x_6_2 + x_6_3 + x_6_4 - v_6 + 16 y_451 <= 16
 R592: y_448 + y_449 + y_450 + y_451 >= 1
 R593: x_2_3 + x_2_4 + x_2_7 - v_2 + 16 y_452 <= 16
 R594: x_3_2 + x_3_4 + x_3_7 - v_3 + 16 y_453 <= 16
 R595: x_4_2 + x_4_3 + x_4_7 - v_4 + 16 y_454 <= 16
 R596: x_7_2 + x_7_3 + x_7_4 - v_7 + 16 y_455 <= 16
 R597: y_452 + y_453 + y_454 + y_455 >= 1
 R598: x_2_3 + x_2_5 + x_2_6 - v_2 + 16 y_456 <= 16
 R599: x_3_2 + x_3_5 + x_3_6 - v_3 + 16 y_457 <= 16
 R600: x_5_2 + x_5_3 + x_5_6 - v_5 + 16 y_458 <= 16
 R601: x_6_2 + x_6_3 + x_6_5 - v_6 + 16 y_459 <= 16
 R602: y_456 + y_457 + y_458 + y_459 >= 1
 R603: x_2_3 + x_2_5 + x_2_7 - v_2 + 16 y_460 <= 16
 R604: x_3_2 + x_3_5 + x_3_7 - v_3 + 16 y_461 <= 16
 R605: x_5_2 + x_5_3 + x_5_7 - v_5 + 16 y_462 <= 16
 R606: x_7_2 + x_7_3 + x_7_5 - v_7 + 16 y_463 <= 16
 R607: y_460 + y_461 + y_462 + y_463 >= 1
 R608: x_2_3 + x_2_6 + x_2_7 - v_2 + 16 y_464 <= 16
 R609: x_3_2 + x_3_6 + x_3_7 - v_3 + 16 y_465 <= 16
 R610: x_6_2 + x_6_3 + x_6_7 - v_6 + 16 y_466 <= 16
 R611: x_7_2 + x_7_3 + x_7_6 - v_7 + 16 y_467 <= 16
 R612: y_464 + y_465 + y_466 + y_467 >= 1
 R613: x_2_4 + x_2_5 + x_2_6 - v_2 + 16 y_468 <= 16
 R614: x_4_2 + x_4_5 + x_4_6 - v_4 + 16 y_469 <= 16
 R615: x_5_2 + x_5_4 + x_5_6 - v_5 + 16 y_470 <= 16
 R616: x_6_2 + x_6_4 + x_6_5 - v_6 + 16 y_471 <= 16
 R617: y_468 + y_469 + y_470 + y_471 >= 1
 R618: x_2_4 + x_2_5 + x_2_7 - v_2 + 16 y_472 <= 16
 R619: x_4_2 + x_4_5 + x_4_7 - v_4 + 16 y_473 <= 16
 R620: x_5_2 + x_5_4 + x_5_7 - v_5 + 16 y_474 <= 16
 R621: x_7_2 + x_7_4 + x_7_5 - v_7 + 16 y_475 <= 16
 R622: y_472 + y_473 + y_474 + y_475 >= 1
 R623: x_2_4 + x_2_6 + x_2_7 - v_2 + 16 y_476 <= 16
 R624: x_4_2 + x_4_6 + x_4_7 - v_4 + 16 y_477 <= 16
 R625: x_6_2 + x_6_4 + x_6_7 - v_6 + 16 y_478 <= 16
 R626: x_7_2 + x_7_4 + x_7_6 - v_7 + 16 y_479 <= 16
 R627: y_476 + y_477 + y_478 + y_479 >= 1
 R628: x_2_5 + x_2_6 + x_2_7 - v_2 + 16 y_480 <= 16
 R629: x_5_2 + x_5_6 + x_5_7 - v_5 + 16 y_481 <= 16
 R630: x_6_2 + x_6_5 + x_6_7 - v_6 + 16 y_482 <= 16
 R631: x_7_2 + x_7_5 + x_7_6 - v_7 + 16 y_483 <= 16
 R632: y_480 + y_481 + y_482 + y_483 >= 1
 R633: x_3_4 + x_3_5 + x_3_6 - v_3 + 16 y_484 <= 16
 R634: x_4_3 + x_4_5 + x_4_6 - v_4 + 16 y_485 <= 16
 R635: x_5_3 + x_5_4 + x_5_6 - v_5 + 16 y_486 <= 16
 R636: x_6_3 + x_6_4 + x_6_5 - v_6 + 16 y_487 <= 16
 R637: y_484 + y_485 + y_486 + y_487 >= 1
 R638: x_3_4 + x_3_5 + x_3_7 - v_3 + 16 y_488 <= 16
 R639: x_4_3 + x_4_5 + x_4_7 - v_4 + 16 y_489 <= 16
 R640: x_5_3 + x_5_4 + x_5_7 - v_5 + 16 y_490 <= 16
 R641: x_7_3 + x_7_4 + x_7_5 - v_7 + 16 y_491 <= 16
 R642: y_488 + y_489 + y_490 + y_491 >= 1
 R643: x_3_4 + x_3_6 + x_3_7 - v_3 + 16 y_492 <= 16
 R644: x_4_3 + x_4_6 + x_4_7 - v_4 + 16 y_493 <= 16
 R645: x_6_3 + x_6_4 + x_6_7 - v_6 + 16 y_494 <= 16
 R646: x_7_3 + x_7_4 + x_7_6 - v_7 + 16 y_495 <= 16
 R647: y_492 + y_493 + y_494 + y_495 >= 1
 R648: x_3_5 + x_3_6 + x_3_7 - v_3 + 16 y_496 <= 16
 R649: x_5_3 + x_5_6 + x_5_7 - v_5 + 16 y_497 <= 16
 R650: x_6_3 + x_6_5 + x_6_7 - v_6 + 16 y_498 <= 16
 R651: x_7_3 + x_7_5 + x_7_6 - v_7 + 16 y_499 <= 16
 R652: y_496 + y_497 + y_498 + y_499 >= 1
 R653: x_4_5 + x_4_6 + x_4_7 - v_4 + 16 y_500 <= 16
 R654: x_5_4 + x_5_6 + x_5_7 - v_5 + 16 y_501 <= 16
 R655: x_6_4 + x_6_5 + x_6_7 - v_6 + 16 y_502 <= 16
 R656: x_7_4 + x_7_5 + x_7_6 - v_7 + 16 y_503 <= 16
 R657: y_500 + y_501 + y_502 + y_503 >= 1
 R658: x_0_1 - x_1_0 = 0
 R659: x_0_2 - x_2_0 = 0
 R660: x_0_3 - x_3_0 = 0
 R661: x_0_4 - x_4_0 = 0
 R662: x_0_5 - x_5_0 = 0
 R663: x_0_6 - x_6_0 = 0
 R664: x_0_7 - x_7_0 = 0
 R665: - x_0_1 + x_1_0 = 0
 R666: x_1_2 - x_2_1 = 0
 R667: x_1_3 - x_3_1 = 0
 R668: x_1_4 - x_4_1 = 0
 R669: x_1_5 - x_5_1 = 0
 R670: x_1_6 - x_6_1 = 0
 R671: x_1_7 - x_7_1 = 0
 R672: - x_0_2 + x_2_0 = 0
 R673: - x_1_2 + x_2_1 = 0
 R674: x_2_3 - x_3_2 = 0
 R675: x_2_4 - x_4_2 = 0
 R676: x_2_5 - x_5_2 = 0
 R677: x_2_6 - x_6_2 = 0
 R678: x_2_7 - x_7_2 = 0
 R679: - x_0_3 + x_3_0 = 0
 R680: - x_1_3 + x_3_1 = 0
 R681: - x_2_3 + x_3_2 = 0
 R682: x_3_4 - x_4_3 = 0
 R683: x_3_5 - x_5_3 = 0
 R684: x_3_6 - x_6_3 = 0
 R685: x_3_7 - x_7_3 = 0
 R686: - x_0_4 + x_4_0 = 0
 R687: - x_1_4 + x_4_1 = 0
 R688: - x_2_4 + x_4_2 = 0
 R689: - x_3_4 + x_4_3 = 0
 R690: x_4_5 - x_5_4 = 0
 R691: x_4_6 - x_6_4 = 0
 R692: x_4_7 - x_7_4 = 0
 R693: - x_0_5 + x_5_0 = 0
 R694: - x_1_5 + x_5_1 = 0
 R695: - x_2_5 + x_5_2 = 0
 R696: - x_3_5 + x_5_3 = 0
 R697: - x_4_5 + x_5_4 = 0
 R698: x_5_6 - x_6_5 = 0
 R699: x_5_7 - x_7_5 = 0
 R700: - x_0_6 + x_6_0 = 0
 R701: - x_1_6 + x_6_1 = 0
 R702: - x_2_6 + x_6_2 = 0
 R703: - x_3_6 + x_6_3 = 0
 R704: - x_4_6 + x_6_4 = 0
 R705: - x_5_6 + x_6_5 = 0
 R706: x_6_7 - x_7_6 = 0
 R707: - x_0_7 + x_7_0 = 0
 R708: - x_1_7 + x_7_1 = 0
 R709: - x_2_7 + x_7_2 = 0
 R710: - x_3_7 + x_7_3 = 0
 R711: - x_4_7 + x_7_4 = 0
 R712: - x_5_7 + x_7_5 = 0
 R713: - x_6_7 + x_7_6 = 0
 R714: v_0 = 1
 R715: v_1 = 1
 R716: v_2 = 1
 R717: v_3 = 1
 R718: v_4 = 1
 R719: v_5 = 1
 R720: v_6 = 1
 R721: v_7 = 1
 R722: x_0_1 + x_0_2 + x_0_3 + x_0_4 + x_0_5 + x_0_6 + x_0_7 - 3 v_0 >= 0
 R723: x_1_0 + x_1_2 + x_1_3 + x_1_4 + x_1_5 + x_1_6 + x_1_7 - 3 v_1 >= 0
 R724: x_2_0 + x_2_1 + x_2_3 + x_2_4 + x_2_5 + x_2_6 + x_2_7 - 3 v_2 >= 0
 R725: x_3_0 + x_3_1 + x_3_2 + x_3_4 + x_3_5 + x_3_6 + x_3_7 - 3 v_3 >= 0
 R726: x_4_0 + x_4_1 + x_4_2 + x_4_3 + x_4_5 + x_4_6 + x_4_7 - 3 v_4 >= 0
 R727: x_5_0 + x_5_1 + x_5_2 + x_5_3 + x_5_4 + x_5_6 + x_5_7 - 3 v_5 >= 0
 R728: x_6_0 + x_6_1 + x_6_2 + x_6_3 + x_6_4 + x_6_5 + x_6_7 - 3 v_6 >= 0
 R729: x_7_0 + x_7_1 + x_7_2 + x_7_3 + x_7_4 + x_7_5 + x_7_6 - 3 v_7 >= 0
Bounds
 alpha >= 1
Binaries
 y_0 y_1 y_2 y_3 y_4 y_5 y_6 y_7 y_8 y_9 y_10 y_11 y_12 y_13 y_14 y_15 y_16
 y_17 y_18 y_19 y_20 y_21 y_22 y_23 y_24 y_25 y_26 y_27 y_28 y_29 y_30 y_31
 y_32 y_33 y_34 y_35 y_36 y_37 y_38 y_39 y_40 y_41 y_42 y_43 y_44 y_45 y_46
 y_47 y_48 y_49 y_50 y_51 y_52 y_53 y_54 y_55 y_56 y_57 y_58 y_59 y_60 y_61
 y_62 y_63 y_64 y_65 y_66 y_67 y_68 y_69 y_70 y_71 y_72 y_73 y_74 y_75 y_76
 y_77 y_78 y_79 y_80 y_81 y_82 y_83 y_84 y_85 y_86 y_87 y_88 y_89 y_90 y_91
 y_92 y_93 y_94 y_95 y_96 y_97 y_98 y_99 y_100 y_101 y_102 y_103 y_104
 y_105 y_106 y_107 y_108 y_109 y_110 y_111 y_112 y_113 y_114 y_115 y_116
 y_117 y_118 y_119 y_120 y_121 y_122 y_123 y_124 y_125 y_126 y_127 y_128
 y_129 y_130 y_131 y_132 y_133 y_134 y_135 y_136 y_137 y_138 y_139 y_140
 y_141 y_142 y_143 y_144 y_145 y_146 y_147 y_148 y_149 y_150 y_151 y_152
 y_153 y_154 y_155 y_156 y_157 y_158 y_159 y_160 y_161 y_162 y_163 y_164
 y_165 y_166 y_167 y_168 y_169 y_170 y_171 y_172 y_173 y_174 y_175 y_176
 y_177 y_178 y_179 y_180 y_181 y_182 y_183 y_184 y_185 y_186 y_187 y_188
 y_189 y_190 y_191 y_192 y_193 y_194 y_195 y_196 y_197 y_198 y_199 y_200
 y_201 y_202 y_203 y_204 y_205 y_206 y_207 y_208 y_209 y_210 y_211 y_212
 y_213 y_214 y_215 y_216 y_217 y_218 y_219 y_220 y_221 y_222 y_223 y_224
 y_225 y_226 y_227 y_228 y_229 y_230 y_231 y_232 y_233 y_234 y_235 y_236
 y_237 y_238 y_239 y_240 y_241 y_242 y_243 y_244 y_245 y_246 y_247 y_248
 y_249 y_250 y_251 y_252 y_253 y_254 y_255 y_256 y_257 y_258 y_259 y_260
 y_261 y_262 y_263 y_264 y_265 y_266 y_267 y_268 y_269 y_270 y_271 y_272
 y_273 y_274 y_275 y_276 y_277 y_278 y_279 y_280 y_281 y_282 y_283 y_284
 y_285 y_286 y_287 y_288 y_289 y_290 y_291 y_292 y_293 y_294 y_295 y_296
 y_297 y_298 y_299 y_300 y_301 y_302 y_303 y_304 y_305 y_306 y_307 y_308
 y_309 y_310 y_311 y_312 y_313 y_314 y_315 y_316 y_317 y_318 y_319 y_320
 y_321 y_322 y_323 y_324 y_325 y_326 y_327 y_328 y_329 y_330 y_331 y_332
 y_333 y_334 y_335 y_336 y_337 y_338 y_339 y_340 y_341 y_342 y_343 y_344
 y_345 y_346 y_347 y_348 y_349 y_350 y_351 y_352 y_353 y_354 y_355 y_356
 y_357 y_358 y_359 y_360 y_361 y_362 y_363 y_364 y_365 y_366 y_367 y_368
 y_369 y_370 y_371 y_372 y_373 y_374 y_375 y_376 y_377 y_378 y_379 y_380
 y_381 y_382 y_383 y_384 y_385 y_386 y_387 y_388 y_389 y_390 y_391 y_392
 y_393 y_394 y_395 y_396 y_397 y_398 y_399 y_400 y_401 y_402 y_403 y_404
 y_405 y_406 y_407 y_408 y_409 y_410 y_411 y_412 y_413 y_414 y_415 y_416
 y_417 y_418 y_419 y_420 y_421 y_422 y_423 y_424 y_425 y_426 y_427 y_428
 y_429 y_430 y_431 y_432 y_433 y_434 y_435 y_436 y_437 y_438 y_439 y_440
 y_441 y_442 y_443 y_444 y_445 y_446 y_447 y_448 y_449 y_450 y_451 y_452
 y_453 y_454 y_455 y_456 y_457 y_458 y_459 y_460 y_461 y_462 y_463 y_464
 y_465 y_466 y_467 y_468 y_469 y_470 y_471 y_472 y_473 y_474 y_475 y_476
 y_477 y_478 y_479 y_480 y_481 y_482 y_483 y_484 y_485 y_486 y_487 y_488
 y_489 y_490 y_491 y_492 y_493 y_494 y_495 y_496 y_497 y_498 y_499 y_500
 y_501 y_502 y_503
Generals
 v_0 v_1 v_2 v_3 v_4 v_5 v_6 v_7
End
